n_res = 4;
rc = [ 0, 0, 0, 0 ];
n_tasks = 30;
d = [ 7, 2, 9, 1, 10, 7, 10, 6, 8, 6, 3, 4, 2, 10, 7, 4, 4, 7, 3, 2, 1, 9, 10, 7, 4, 3, 10, 8, 9, 10 ];
rr = [| 0, 0, 0, 0, 0, 0, 0, 0, 0, 0, 0, 0, 0, 0, 0, 0, 0, 0, 0, 0, 0, 0, 0, 0, 0, 0, 0, 0, 0, 0
      | 0, 0, 0, 0, 0, 0, 0, 0, 0, 0, 0, 0, 0, 0, 0, 0, 0, 0, 0, 0, 0, 0, 0, 0, 0, 0, 0, 0, 0, 0
      | 0, 0, 0, 0, 0, 0, 0, 0, 0, 0, 0, 0, 0, 0, 0, 0, 0, 0, 0, 0, 0, 0, 0, 0, 0, 0, 0, 0, 0, 0
      | 0, 0, 0, 0, 0, 0, 0, 0, 0, 0, 0, 0, 0, 0, 0, 0, 0, 0, 0, 0, 0, 0, 0, 0, 0, 0, 0, 0, 0, 0 |];
suc = [ { 5, 16, 17 },
       { 4, 10, 20 },
       { 5, 6, 22 },
       { 7, 17, 18 },
       { 15, 19 },
       { 8, 12 },
       { 8, 11, 15 },
       { 9 },
       { 13, 23 },
       { 17, 19, 22 },
       { 25, 30 },
       { 20, 21 },
       { 14 },
       { 24 },
       { 23, 29 },
       { 26, 27 },
       { 21, 28 },
       { 19, 22, 24 },
       { 26 },
       { 25 },
       { 24, 25, 30 },
       { 23, 28 },
       { 30 },
       { 29 },
       { 26 },
       { 29 },
       { 28 },
       {  },
       {  },
       {  } ];
